Traveling Salesman Problem/TSP_generados/Aleatorio1620390846_5.tsp
NAME: Aleatorio1620390846_5.tsp
COMMENT: Randomly generated scenario
TYPE: TSP
DIMENSION: 5
EDGE_WEIGHT_TYPE: ATT
NODE_COORD_SECTION
1 22.39 6.76
2 17.84 35.96
3 41.5 7.97
4 25.18 37.71
5 31.96 30.43
