Traveling Salesman Problem/TSP_generados/Aleatorio1620390846_5.opt.tour
NAME: Aleatorio1620390846_5.opt.tour
COMMENT: Optimal solution for Aleatorio1620390846_5 (90.59669204756467)
TYPE: TOUR
DIMENSION: 5
TOUR_SECTION
1 2 4 5 3
-1
EOF
